HEIGHT = 11;
WIDTH = 11;
AGENTS = 3;

path = array2d(1..AGENTS, Marker,
  [|(y: 6, x: 1, d: ">"), (y:  6, x: 11, d: ">")
   |(y: 1, x: 5, d: "v"), (y: 11, x:  7, d: "v")
   |(y: 1, x: 7, d: "v"), (y: 11, x:  5, d: "v")|]);

walls = array2d(1..HEIGHT, 1..WIDTH, [0 | _ in 1..HEIGHT, _ in 1..WIDTH]);
